  50 

  34  35  48   1  18  29  35  49  23  16  19  46  41  41  29  39  35  30   7   8  13  45  46  38  35  10  48   2   3  21   9  40  18  47  34  35  12  31  34  31  31  42  45  18  35  38  33  32  35  20

 364

   7   5   3  17  16  15   8   7  20  10   8  17  10  16  19  25  24   3   5  23   2   1   2  11   4   6  17   6   9  18  14  23   5  17  24  16  17   1  19  13  20   2  18   9  23   2  23   1   8  23

